NAME : OMNETRUN
COMMENT : 524.61
TYPE : CVRP
DIMENSION : 21
EDGE_WEIGHT_TYPE : EUC_2D
CAPACITY : 21
NODE_COORD_SECTION
1 0.107093 -0.77924
2 214.495 -1312.43
3 99.877 -3039.27
4 203.096 -3675.9
5 6.67189 -4167.54
6 93.3839 -4742.58
7 31.1083 -5477.1
8 456.336 -754.543
9 340.006 -2108.65
10 442.143 -4218.9
11 583.123 -229.718
12 694.396 -1159.68
13 600.712 -1515.71
14 615.313 -2438.46
15 612.486 -3438.83
16 539.967 -4588.71
17 508.076 -4970.77
18 619.995 -5408.35
19 942.696 -1901.73
20 951.389 -4279.4
21 893.803 -5987.39
DEMAND_SECTION
1 0
2 1
3 1
4 1
5 1
6 1
7 1
8 1
9 1
10 1
11 1
12 1
13 1
14 1
15 1
16 1
17 1
18 1
19 1
20 1
21 1
DEPOT_SECTION
1
-1
EOF
